\ Generated by MPModelProtoExporter
\   Name             : 
\   Format           : Free
\   Constraints      : 25
\   Variables        : 408
\     Binary         : 408
\     Integer        : 0
\     Continuous     : 0
Minimize
 Obj: +6.24 x[0,0] +8.30544 x[0,1] +10.7827 x[0,2] +13.7093 x[0,3] +17.1226 x[0,4] +21.06 x[0,5] +25.559 x[0,6] +30.6571 x[0,7] +36.3917 x[0,8] +42.8002 x[0,9] +49.92 x[0,10] +57.7886 x[0,11] +66.4435 x[0,12] +75.9221 x[0,13] +86.2618 x[0,14] +97.5 x[0,15] +109.674 x[0,16] +6.24 x[1,0] +8.30544 x[1,1] +10.7827 x[1,2] +13.7093 x[1,3] +17.1226 x[1,4] +21.06 x[1,5] +25.559 x[1,6] +30.6571 x[1,7] +36.3917 x[1,8] +42.8002 x[1,9] +49.92 x[1,10] +57.7886 x[1,11] +66.4435 x[1,12] +75.9221 x[1,13] +86.2618 x[1,14] +97.5 x[1,15] +109.674 x[1,16] +3.12 x[2,0] +4.15272 x[2,1] +5.39136 x[2,2] +6.85464 x[2,3] +8.56128 x[2,4] +10.53 x[2,5] +12.7795 x[2,6] +15.3286 x[2,7] +18.1958 x[2,8] +21.4001 x[2,9] +24.96 x[2,10] +28.8943 x[2,11] +33.2218 x[2,12] +37.961 x[2,13] +43.1309 x[2,14] +48.75 x[2,15] +54.8371 x[2,16] +3.12 x[3,0] +4.15272 x[3,1] +5.39136 x[3,2] +6.85464 x[3,3] +8.56128 x[3,4] +10.53 x[3,5] +12.7795 x[3,6] +15.3286 x[3,7] +18.1958 x[3,8] +21.4001 x[3,9] +24.96 x[3,10] +28.8943 x[3,11] +33.2218 x[3,12] +37.961 x[3,13] +43.1309 x[3,14] +48.75 x[3,15] +54.8371 x[3,16] +3.12 x[4,0] +4.15272 x[4,1] +5.39136 x[4,2] +6.85464 x[4,3] +8.56128 x[4,4] +10.53 x[4,5] +12.7795 x[4,6] +15.3286 x[4,7] +18.1958 x[4,8] +21.4001 x[4,9] +24.96 x[4,10] +28.8943 x[4,11] +33.2218 x[4,12] +37.961 x[4,13] +43.1309 x[4,14] +48.75 x[4,15] +54.8371 x[4,16] +3.12 x[5,0] +4.15272 x[5,1] +5.39136 x[5,2] +6.85464 x[5,3] +8.56128 x[5,4] +10.53 x[5,5] +12.7795 x[5,6] +15.3286 x[5,7] +18.1958 x[5,8] +21.4001 x[5,9] +24.96 x[5,10] +28.8943 x[5,11] +33.2218 x[5,12] +37.961 x[5,13] +43.1309 x[5,14] +48.75 x[5,15] +54.8371 x[5,16] +3.12 x[6,0] +4.15272 x[6,1] +5.39136 x[6,2] +6.85464 x[6,3] +8.56128 x[6,4] +10.53 x[6,5] +12.7795 x[6,6] +15.3286 x[6,7] +18.1958 x[6,8] +21.4001 x[6,9] +24.96 x[6,10] +28.8943 x[6,11] +33.2218 x[6,12] +37.961 x[6,13] +43.1309 x[6,14] +48.75 x[6,15] +54.8371 x[6,16] +3.12 x[7,0] +4.15272 x[7,1] +5.39136 x[7,2] +6.85464 x[7,3] +8.56128 x[7,4] +10.53 x[7,5] +12.7795 x[7,6] +15.3286 x[7,7] +18.1958 x[7,8] +21.4001 x[7,9] +24.96 x[7,10] +28.8943 x[7,11] +33.2218 x[7,12] +37.961 x[7,13] +43.1309 x[7,14] +48.75 x[7,15] +54.8371 x[7,16] +3.12 x[8,0] +4.15272 x[8,1] +5.39136 x[8,2] +6.85464 x[8,3] +8.56128 x[8,4] +10.53 x[8,5] +12.7795 x[8,6] +15.3286 x[8,7] +18.1958 x[8,8] +21.4001 x[8,9] +24.96 x[8,10] +28.8943 x[8,11] +33.2218 x[8,12] +37.961 x[8,13] +43.1309 x[8,14] +48.75 x[8,15] +54.8371 x[8,16] +3.12 x[9,0] +4.15272 x[9,1] +5.39136 x[9,2] +6.85464 x[9,3] +8.56128 x[9,4] +10.53 x[9,5] +12.7795 x[9,6] +15.3286 x[9,7] +18.1958 x[9,8] +21.4001 x[9,9] +24.96 x[9,10] +28.8943 x[9,11] +33.2218 x[9,12] +37.961 x[9,13] +43.1309 x[9,14] +48.75 x[9,15] +54.8371 x[9,16] +7.28 x[10,0] +9.68968 x[10,1] +12.5798 x[10,2] +15.9942 x[10,3] +19.9763 x[10,4] +24.57 x[10,5] +29.8189 x[10,6] +35.7666 x[10,7] +42.457 x[10,8] +49.9335 x[10,9] +58.24 x[10,10] +67.4201 x[10,11] +77.5174 x[10,12] +88.5758 x[10,13] +100.639 x[10,14] +113.75 x[10,15] +127.953 x[10,16] +7.28 x[11,0] +9.68968 x[11,1] +12.5798 x[11,2] +15.9942 x[11,3] +19.9763 x[11,4] +24.57 x[11,5] +29.8189 x[11,6] +35.7666 x[11,7] +42.457 x[11,8] +49.9335 x[11,9] +58.24 x[11,10] +67.4201 x[11,11] +77.5174 x[11,12] +88.5758 x[11,13] +100.639 x[11,14] +113.75 x[11,15] +127.953 x[11,16] +7.28 x[12,0] +9.68968 x[12,1] +12.5798 x[12,2] +15.9942 x[12,3] +19.9763 x[12,4] +24.57 x[12,5] +29.8189 x[12,6] +35.7666 x[12,7] +42.457 x[12,8] +49.9335 x[12,9] +58.24 x[12,10] +67.4201 x[12,11] +77.5174 x[12,12] +88.5758 x[12,13] +100.639 x[12,14] +113.75 x[12,15] +127.953 x[12,16] +7.28 x[13,0] +9.68968 x[13,1] +12.5798 x[13,2] +15.9942 x[13,3] +19.9763 x[13,4] +24.57 x[13,5] +29.8189 x[13,6] +35.7666 x[13,7] +42.457 x[13,8] +49.9335 x[13,9] +58.24 x[13,10] +67.4201 x[13,11] +77.5174 x[13,12] +88.5758 x[13,13] +100.639 x[13,14] +113.75 x[13,15] +127.953 x[13,16] +7.28 x[14,0] +9.68968 x[14,1] +12.5798 x[14,2] +15.9942 x[14,3] +19.9763 x[14,4] +24.57 x[14,5] +29.8189 x[14,6] +35.7666 x[14,7] +42.457 x[14,8] +49.9335 x[14,9] +58.24 x[14,10] +67.4201 x[14,11] +77.5174 x[14,12] +88.5758 x[14,13] +100.639 x[14,14] +113.75 x[14,15] +127.953 x[14,16] +7.28 x[15,0] +9.68968 x[15,1] +12.5798 x[15,2] +15.9942 x[15,3] +19.9763 x[15,4] +24.57 x[15,5] +29.8189 x[15,6] +35.7666 x[15,7] +42.457 x[15,8] +49.9335 x[15,9] +58.24 x[15,10] +67.4201 x[15,11] +77.5174 x[15,12] +88.5758 x[15,13] +100.639 x[15,14] +113.75 x[15,15] +127.953 x[15,16] +7.28 x[16,0] +9.68968 x[16,1] +12.5798 x[16,2] +15.9942 x[16,3] +19.9763 x[16,4] +24.57 x[16,5] +29.8189 x[16,6] +35.7666 x[16,7] +42.457 x[16,8] +49.9335 x[16,9] +58.24 x[16,10] +67.4201 x[16,11] +77.5174 x[16,12] +88.5758 x[16,13] +100.639 x[16,14] +113.75 x[16,15] +127.953 x[16,16] +7.28 x[17,0] +9.68968 x[17,1] +12.5798 x[17,2] +15.9942 x[17,3] +19.9763 x[17,4] +24.57 x[17,5] +29.8189 x[17,6] +35.7666 x[17,7] +42.457 x[17,8] +49.9335 x[17,9] +58.24 x[17,10] +67.4201 x[17,11] +77.5174 x[17,12] +88.5758 x[17,13] +100.639 x[17,14] +113.75 x[17,15] +127.953 x[17,16] +7.28 x[18,0] +9.68968 x[18,1] +12.5798 x[18,2] +15.9942 x[18,3] +19.9763 x[18,4] +24.57 x[18,5] +29.8189 x[18,6] +35.7666 x[18,7] +42.457 x[18,8] +49.9335 x[18,9] +58.24 x[18,10] +67.4201 x[18,11] +77.5174 x[18,12] +88.5758 x[18,13] +100.639 x[18,14] +113.75 x[18,15] +127.953 x[18,16] +7.28 x[19,0] +9.68968 x[19,1] +12.5798 x[19,2] +15.9942 x[19,3] +19.9763 x[19,4] +24.57 x[19,5] +29.8189 x[19,6] +35.7666 x[19,7] +42.457 x[19,8] +49.9335 x[19,9] +58.24 x[19,10] +67.4201 x[19,11] +77.5174 x[19,12] +88.5758 x[19,13] +100.639 x[19,14] +113.75 x[19,15] +127.953 x[19,16] +7.28 x[20,0] +9.68968 x[20,1] +12.5798 x[20,2] +15.9942 x[20,3] +19.9763 x[20,4] +24.57 x[20,5] +29.8189 x[20,6] +35.7666 x[20,7] +42.457 x[20,8] +49.9335 x[20,9] +58.24 x[20,10] +67.4201 x[20,11] +77.5174 x[20,12] +88.5758 x[20,13] +100.639 x[20,14] +113.75 x[20,15] +127.953 x[20,16] +7.28 x[21,0] +9.68968 x[21,1] +12.5798 x[21,2] +15.9942 x[21,3] +19.9763 x[21,4] +24.57 x[21,5] +29.8189 x[21,6] +35.7666 x[21,7] +42.457 x[21,8] +49.9335 x[21,9] +58.24 x[21,10] +67.4201 x[21,11] +77.5174 x[21,12] +88.5758 x[21,13] +100.639 x[21,14] +113.75 x[21,15] +127.953 x[21,16] +7.28 x[22,0] +9.68968 x[22,1] +12.5798 x[22,2] +15.9942 x[22,3] +19.9763 x[22,4] +24.57 x[22,5] +29.8189 x[22,6] +35.7666 x[22,7] +42.457 x[22,8] +49.9335 x[22,9] +58.24 x[22,10] +67.4201 x[22,11] +77.5174 x[22,12] +88.5758 x[22,13] +100.639 x[22,14] +113.75 x[22,15] +127.953 x[22,16] +6.24 x[23,0] +8.30544 x[23,1] +10.7827 x[23,2] +13.7093 x[23,3] +17.1226 x[23,4] +21.06 x[23,5] +25.559 x[23,6] +30.6571 x[23,7] +36.3917 x[23,8] +42.8002 x[23,9] +49.92 x[23,10] +57.7886 x[23,11] +66.4435 x[23,12] +75.9221 x[23,13] +86.2618 x[23,14] +97.5 x[23,15] +109.674 x[23,16] 
Subject to
 auto_c_000000000: +1.8 x[0,0] +1.98 x[0,1] +2.16 x[0,2] +2.34 x[0,3] +2.52 x[0,4] +2.7 x[0,5] +2.88 x[0,6] +3.06 x[0,7] +3.24 x[0,8] +3.42 x[0,9] +3.6 x[0,10] +3.78 x[0,11] +3.96 x[0,12] +4.14 x[0,13] +4.32 x[0,14] +4.5 x[0,15] +4.68 x[0,16] +1.8 x[1,0] +1.98 x[1,1] +2.16 x[1,2] +2.34 x[1,3] +2.52 x[1,4] +2.7 x[1,5] +2.88 x[1,6] +3.06 x[1,7] +3.24 x[1,8] +3.42 x[1,9] +3.6 x[1,10] +3.78 x[1,11] +3.96 x[1,12] +4.14 x[1,13] +4.32 x[1,14] +4.5 x[1,15] +4.68 x[1,16] +0.9 x[2,0] +0.99 x[2,1] +1.08 x[2,2] +1.17 x[2,3] +1.26 x[2,4] +1.35 x[2,5] +1.44 x[2,6] +1.53 x[2,7] +1.62 x[2,8] +1.71 x[2,9] +1.8 x[2,10] +1.89 x[2,11] +1.98 x[2,12] +2.07 x[2,13] +2.16 x[2,14] +2.25 x[2,15] +2.34 x[2,16] +0.9 x[3,0] +0.99 x[3,1] +1.08 x[3,2] +1.17 x[3,3] +1.26 x[3,4] +1.35 x[3,5] +1.44 x[3,6] +1.53 x[3,7] +1.62 x[3,8] +1.71 x[3,9] +1.8 x[3,10] +1.89 x[3,11] +1.98 x[3,12] +2.07 x[3,13] +2.16 x[3,14] +2.25 x[3,15] +2.34 x[3,16] +0.9 x[4,0] +0.99 x[4,1] +1.08 x[4,2] +1.17 x[4,3] +1.26 x[4,4] +1.35 x[4,5] +1.44 x[4,6] +1.53 x[4,7] +1.62 x[4,8] +1.71 x[4,9] +1.8 x[4,10] +1.89 x[4,11] +1.98 x[4,12] +2.07 x[4,13] +2.16 x[4,14] +2.25 x[4,15] +2.34 x[4,16] +0.9 x[5,0] +0.99 x[5,1] +1.08 x[5,2] +1.17 x[5,3] +1.26 x[5,4] +1.35 x[5,5] +1.44 x[5,6] +1.53 x[5,7] +1.62 x[5,8] +1.71 x[5,9] +1.8 x[5,10] +1.89 x[5,11] +1.98 x[5,12] +2.07 x[5,13] +2.16 x[5,14] +2.25 x[5,15] +2.34 x[5,16] +0.9 x[6,0] +0.99 x[6,1] +1.08 x[6,2] +1.17 x[6,3] +1.26 x[6,4] +1.35 x[6,5] +1.44 x[6,6] +1.53 x[6,7] +1.62 x[6,8] +1.71 x[6,9] +1.8 x[6,10] +1.89 x[6,11] +1.98 x[6,12] +2.07 x[6,13] +2.16 x[6,14] +2.25 x[6,15] +2.34 x[6,16] +0.9 x[7,0] +0.99 x[7,1] +1.08 x[7,2] +1.17 x[7,3] +1.26 x[7,4] +1.35 x[7,5] +1.44 x[7,6] +1.53 x[7,7] +1.62 x[7,8] +1.71 x[7,9] +1.8 x[7,10] +1.89 x[7,11] +1.98 x[7,12] +2.07 x[7,13] +2.16 x[7,14] +2.25 x[7,15] +2.34 x[7,16] +0.9 x[8,0] +0.99 x[8,1] +1.08 x[8,2] +1.17 x[8,3] +1.26 x[8,4] +1.35 x[8,5] +1.44 x[8,6] +1.53 x[8,7] +1.62 x[8,8] +1.71 x[8,9] +1.8 x[8,10] +1.89 x[8,11] +1.98 x[8,12] +2.07 x[8,13] +2.16 x[8,14] +2.25 x[8,15] +2.34 x[8,16] +0.9 x[9,0] +0.99 x[9,1] +1.08 x[9,2] +1.17 x[9,3] +1.26 x[9,4] +1.35 x[9,5] +1.44 x[9,6] +1.53 x[9,7] +1.62 x[9,8] +1.71 x[9,9] +1.8 x[9,10] +1.89 x[9,11] +1.98 x[9,12] +2.07 x[9,13] +2.16 x[9,14] +2.25 x[9,15] +2.34 x[9,16] +0.9 x[10,0] +0.99 x[10,1] +1.08 x[10,2] +1.17 x[10,3] +1.26 x[10,4] +1.35 x[10,5] +1.44 x[10,6] +1.53 x[10,7] +1.62 x[10,8] +1.71 x[10,9] +1.8 x[10,10] +1.89 x[10,11] +1.98 x[10,12] +2.07 x[10,13] +2.16 x[10,14] +2.25 x[10,15] +2.34 x[10,16] +0.9 x[11,0] +0.99 x[11,1] +1.08 x[11,2] +1.17 x[11,3] +1.26 x[11,4] +1.35 x[11,5] +1.44 x[11,6] +1.53 x[11,7] +1.62 x[11,8] +1.71 x[11,9] +1.8 x[11,10] +1.89 x[11,11] +1.98 x[11,12] +2.07 x[11,13] +2.16 x[11,14] +2.25 x[11,15] +2.34 x[11,16] +0.9 x[12,0] +0.99 x[12,1] +1.08 x[12,2] +1.17 x[12,3] +1.26 x[12,4] +1.35 x[12,5] +1.44 x[12,6] +1.53 x[12,7] +1.62 x[12,8] +1.71 x[12,9] +1.8 x[12,10] +1.89 x[12,11] +1.98 x[12,12] +2.07 x[12,13] +2.16 x[12,14] +2.25 x[12,15] +2.34 x[12,16] +0.9 x[13,0] +0.99 x[13,1] +1.08 x[13,2] +1.17 x[13,3] +1.26 x[13,4] +1.35 x[13,5] +1.44 x[13,6] +1.53 x[13,7] +1.62 x[13,8] +1.71 x[13,9] +1.8 x[13,10] +1.89 x[13,11] +1.98 x[13,12] +2.07 x[13,13] +2.16 x[13,14] +2.25 x[13,15] +2.34 x[13,16] +0.9 x[14,0] +0.99 x[14,1] +1.08 x[14,2] +1.17 x[14,3] +1.26 x[14,4] +1.35 x[14,5] +1.44 x[14,6] +1.53 x[14,7] +1.62 x[14,8] +1.71 x[14,9] +1.8 x[14,10] +1.89 x[14,11] +1.98 x[14,12] +2.07 x[14,13] +2.16 x[14,14] +2.25 x[14,15] +2.34 x[14,16] +0.9 x[15,0] +0.99 x[15,1] +1.08 x[15,2] +1.17 x[15,3] +1.26 x[15,4] +1.35 x[15,5] +1.44 x[15,6] +1.53 x[15,7] +1.62 x[15,8] +1.71 x[15,9] +1.8 x[15,10] +1.89 x[15,11] +1.98 x[15,12] +2.07 x[15,13] +2.16 x[15,14] +2.25 x[15,15] +2.34 x[15,16] +0.9 x[16,0] +0.99 x[16,1] +1.08 x[16,2] +1.17 x[16,3] +1.26 x[16,4] +1.35 x[16,5] +1.44 x[16,6] +1.53 x[16,7] +1.62 x[16,8] +1.71 x[16,9] +1.8 x[16,10] +1.89 x[16,11] +1.98 x[16,12] +2.07 x[16,13] +2.16 x[16,14] +2.25 x[16,15] +2.34 x[16,16] +0.9 x[17,0] +0.99 x[17,1] +1.08 x[17,2] +1.17 x[17,3] +1.26 x[17,4] +1.35 x[17,5] +1.44 x[17,6] +1.53 x[17,7] +1.62 x[17,8] +1.71 x[17,9] +1.8 x[17,10] +1.89 x[17,11] +1.98 x[17,12] +2.07 x[17,13] +2.16 x[17,14] +2.25 x[17,15] +2.34 x[17,16] +0.9 x[18,0] +0.99 x[18,1] +1.08 x[18,2] +1.17 x[18,3] +1.26 x[18,4] +1.35 x[18,5] +1.44 x[18,6] +1.53 x[18,7] +1.62 x[18,8] +1.71 x[18,9] +1.8 x[18,10] +1.89 x[18,11] +1.98 x[18,12] +2.07 x[18,13] +2.16 x[18,14] +2.25 x[18,15] +2.34 x[18,16] +0.9 x[19,0] +0.99 x[19,1] +1.08 x[19,2] +1.17 x[19,3] +1.26 x[19,4] +1.35 x[19,5] +1.44 x[19,6] +1.53 x[19,7] +1.62 x[19,8] +1.71 x[19,9] +1.8 x[19,10] +1.89 x[19,11] +1.98 x[19,12] +2.07 x[19,13] +2.16 x[19,14] +2.25 x[19,15] +2.34 x[19,16] +0.9 x[20,0] +0.99 x[20,1] +1.08 x[20,2] +1.17 x[20,3] +1.26 x[20,4] +1.35 x[20,5] +1.44 x[20,6] +1.53 x[20,7] +1.62 x[20,8] +1.71 x[20,9] +1.8 x[20,10] +1.89 x[20,11] +1.98 x[20,12] +2.07 x[20,13] +2.16 x[20,14] +2.25 x[20,15] +2.34 x[20,16] +0.9 x[21,0] +0.99 x[21,1] +1.08 x[21,2] +1.17 x[21,3] +1.26 x[21,4] +1.35 x[21,5] +1.44 x[21,6] +1.53 x[21,7] +1.62 x[21,8] +1.71 x[21,9] +1.8 x[21,10] +1.89 x[21,11] +1.98 x[21,12] +2.07 x[21,13] +2.16 x[21,14] +2.25 x[21,15] +2.34 x[21,16] +0.9 x[22,0] +0.99 x[22,1] +1.08 x[22,2] +1.17 x[22,3] +1.26 x[22,4] +1.35 x[22,5] +1.44 x[22,6] +1.53 x[22,7] +1.62 x[22,8] +1.71 x[22,9] +1.8 x[22,10] +1.89 x[22,11] +1.98 x[22,12] +2.07 x[22,13] +2.16 x[22,14] +2.25 x[22,15] +2.34 x[22,16] +1.8 x[23,0] +1.98 x[23,1] +2.16 x[23,2] +2.34 x[23,3] +2.52 x[23,4] +2.7 x[23,5] +2.88 x[23,6] +3.06 x[23,7] +3.24 x[23,8] +3.42 x[23,9] +3.6 x[23,10] +3.78 x[23,11] +3.96 x[23,12] +4.14 x[23,13] +4.32 x[23,14] +4.5 x[23,15] +4.68 x[23,16]  >= 48.6
 auto_c_000000001: +1 x[0,0] +1 x[0,1] +1 x[0,2] +1 x[0,3] +1 x[0,4] +1 x[0,5] +1 x[0,6] +1 x[0,7] +1 x[0,8] +1 x[0,9] +1 x[0,10] +1 x[0,11] +1 x[0,12] +1 x[0,13] +1 x[0,14] +1 x[0,15] +1 x[0,16]  = 1
 auto_c_000000002: +1 x[1,0] +1 x[1,1] +1 x[1,2] +1 x[1,3] +1 x[1,4] +1 x[1,5] +1 x[1,6] +1 x[1,7] +1 x[1,8] +1 x[1,9] +1 x[1,10] +1 x[1,11] +1 x[1,12] +1 x[1,13] +1 x[1,14] +1 x[1,15] +1 x[1,16]  = 1
 auto_c_000000003: +1 x[2,0] +1 x[2,1] +1 x[2,2] +1 x[2,3] +1 x[2,4] +1 x[2,5] +1 x[2,6] +1 x[2,7] +1 x[2,8] +1 x[2,9] +1 x[2,10] +1 x[2,11] +1 x[2,12] +1 x[2,13] +1 x[2,14] +1 x[2,15] +1 x[2,16]  = 1
 auto_c_000000004: +1 x[3,0] +1 x[3,1] +1 x[3,2] +1 x[3,3] +1 x[3,4] +1 x[3,5] +1 x[3,6] +1 x[3,7] +1 x[3,8] +1 x[3,9] +1 x[3,10] +1 x[3,11] +1 x[3,12] +1 x[3,13] +1 x[3,14] +1 x[3,15] +1 x[3,16]  = 1
 auto_c_000000005: +1 x[4,0] +1 x[4,1] +1 x[4,2] +1 x[4,3] +1 x[4,4] +1 x[4,5] +1 x[4,6] +1 x[4,7] +1 x[4,8] +1 x[4,9] +1 x[4,10] +1 x[4,11] +1 x[4,12] +1 x[4,13] +1 x[4,14] +1 x[4,15] +1 x[4,16]  = 1
 auto_c_000000006: +1 x[5,0] +1 x[5,1] +1 x[5,2] +1 x[5,3] +1 x[5,4] +1 x[5,5] +1 x[5,6] +1 x[5,7] +1 x[5,8] +1 x[5,9] +1 x[5,10] +1 x[5,11] +1 x[5,12] +1 x[5,13] +1 x[5,14] +1 x[5,15] +1 x[5,16]  = 1
 auto_c_000000007: +1 x[6,0] +1 x[6,1] +1 x[6,2] +1 x[6,3] +1 x[6,4] +1 x[6,5] +1 x[6,6] +1 x[6,7] +1 x[6,8] +1 x[6,9] +1 x[6,10] +1 x[6,11] +1 x[6,12] +1 x[6,13] +1 x[6,14] +1 x[6,15] +1 x[6,16]  = 1
 auto_c_000000008: +1 x[7,0] +1 x[7,1] +1 x[7,2] +1 x[7,3] +1 x[7,4] +1 x[7,5] +1 x[7,6] +1 x[7,7] +1 x[7,8] +1 x[7,9] +1 x[7,10] +1 x[7,11] +1 x[7,12] +1 x[7,13] +1 x[7,14] +1 x[7,15] +1 x[7,16]  = 1
 auto_c_000000009: +1 x[8,0] +1 x[8,1] +1 x[8,2] +1 x[8,3] +1 x[8,4] +1 x[8,5] +1 x[8,6] +1 x[8,7] +1 x[8,8] +1 x[8,9] +1 x[8,10] +1 x[8,11] +1 x[8,12] +1 x[8,13] +1 x[8,14] +1 x[8,15] +1 x[8,16]  = 1
 auto_c_000000010: +1 x[9,0] +1 x[9,1] +1 x[9,2] +1 x[9,3] +1 x[9,4] +1 x[9,5] +1 x[9,6] +1 x[9,7] +1 x[9,8] +1 x[9,9] +1 x[9,10] +1 x[9,11] +1 x[9,12] +1 x[9,13] +1 x[9,14] +1 x[9,15] +1 x[9,16]  = 1
 auto_c_000000011: +1 x[10,0] +1 x[10,1] +1 x[10,2] +1 x[10,3] +1 x[10,4] +1 x[10,5] +1 x[10,6] +1 x[10,7] +1 x[10,8] +1 x[10,9] +1 x[10,10] +1 x[10,11] +1 x[10,12] +1 x[10,13] +1 x[10,14] +1 x[10,15] +1 x[10,16]  = 1
 auto_c_000000012: +1 x[11,0] +1 x[11,1] +1 x[11,2] +1 x[11,3] +1 x[11,4] +1 x[11,5] +1 x[11,6] +1 x[11,7] +1 x[11,8] +1 x[11,9] +1 x[11,10] +1 x[11,11] +1 x[11,12] +1 x[11,13] +1 x[11,14] +1 x[11,15] +1 x[11,16]  = 1
 auto_c_000000013: +1 x[12,0] +1 x[12,1] +1 x[12,2] +1 x[12,3] +1 x[12,4] +1 x[12,5] +1 x[12,6] +1 x[12,7] +1 x[12,8] +1 x[12,9] +1 x[12,10] +1 x[12,11] +1 x[12,12] +1 x[12,13] +1 x[12,14] +1 x[12,15] +1 x[12,16]  = 1
 auto_c_000000014: +1 x[13,0] +1 x[13,1] +1 x[13,2] +1 x[13,3] +1 x[13,4] +1 x[13,5] +1 x[13,6] +1 x[13,7] +1 x[13,8] +1 x[13,9] +1 x[13,10] +1 x[13,11] +1 x[13,12] +1 x[13,13] +1 x[13,14] +1 x[13,15] +1 x[13,16]  = 1
 auto_c_000000015: +1 x[14,0] +1 x[14,1] +1 x[14,2] +1 x[14,3] +1 x[14,4] +1 x[14,5] +1 x[14,6] +1 x[14,7] +1 x[14,8] +1 x[14,9] +1 x[14,10] +1 x[14,11] +1 x[14,12] +1 x[14,13] +1 x[14,14] +1 x[14,15] +1 x[14,16]  = 1
 auto_c_000000016: +1 x[15,0] +1 x[15,1] +1 x[15,2] +1 x[15,3] +1 x[15,4] +1 x[15,5] +1 x[15,6] +1 x[15,7] +1 x[15,8] +1 x[15,9] +1 x[15,10] +1 x[15,11] +1 x[15,12] +1 x[15,13] +1 x[15,14] +1 x[15,15] +1 x[15,16]  = 1
 auto_c_000000017: +1 x[16,0] +1 x[16,1] +1 x[16,2] +1 x[16,3] +1 x[16,4] +1 x[16,5] +1 x[16,6] +1 x[16,7] +1 x[16,8] +1 x[16,9] +1 x[16,10] +1 x[16,11] +1 x[16,12] +1 x[16,13] +1 x[16,14] +1 x[16,15] +1 x[16,16]  = 1
 auto_c_000000018: +1 x[17,0] +1 x[17,1] +1 x[17,2] +1 x[17,3] +1 x[17,4] +1 x[17,5] +1 x[17,6] +1 x[17,7] +1 x[17,8] +1 x[17,9] +1 x[17,10] +1 x[17,11] +1 x[17,12] +1 x[17,13] +1 x[17,14] +1 x[17,15] +1 x[17,16]  = 1
 auto_c_000000019: +1 x[18,0] +1 x[18,1] +1 x[18,2] +1 x[18,3] +1 x[18,4] +1 x[18,5] +1 x[18,6] +1 x[18,7] +1 x[18,8] +1 x[18,9] +1 x[18,10] +1 x[18,11] +1 x[18,12] +1 x[18,13] +1 x[18,14] +1 x[18,15] +1 x[18,16]  = 1
 auto_c_000000020: +1 x[19,0] +1 x[19,1] +1 x[19,2] +1 x[19,3] +1 x[19,4] +1 x[19,5] +1 x[19,6] +1 x[19,7] +1 x[19,8] +1 x[19,9] +1 x[19,10] +1 x[19,11] +1 x[19,12] +1 x[19,13] +1 x[19,14] +1 x[19,15] +1 x[19,16]  = 1
 auto_c_000000021: +1 x[20,0] +1 x[20,1] +1 x[20,2] +1 x[20,3] +1 x[20,4] +1 x[20,5] +1 x[20,6] +1 x[20,7] +1 x[20,8] +1 x[20,9] +1 x[20,10] +1 x[20,11] +1 x[20,12] +1 x[20,13] +1 x[20,14] +1 x[20,15] +1 x[20,16]  = 1
 auto_c_000000022: +1 x[21,0] +1 x[21,1] +1 x[21,2] +1 x[21,3] +1 x[21,4] +1 x[21,5] +1 x[21,6] +1 x[21,7] +1 x[21,8] +1 x[21,9] +1 x[21,10] +1 x[21,11] +1 x[21,12] +1 x[21,13] +1 x[21,14] +1 x[21,15] +1 x[21,16]  = 1
 auto_c_000000023: +1 x[22,0] +1 x[22,1] +1 x[22,2] +1 x[22,3] +1 x[22,4] +1 x[22,5] +1 x[22,6] +1 x[22,7] +1 x[22,8] +1 x[22,9] +1 x[22,10] +1 x[22,11] +1 x[22,12] +1 x[22,13] +1 x[22,14] +1 x[22,15] +1 x[22,16]  = 1
 auto_c_000000024: +1 x[23,0] +1 x[23,1] +1 x[23,2] +1 x[23,3] +1 x[23,4] +1 x[23,5] +1 x[23,6] +1 x[23,7] +1 x[23,8] +1 x[23,9] +1 x[23,10] +1 x[23,11] +1 x[23,12] +1 x[23,13] +1 x[23,14] +1 x[23,15] +1 x[23,16]  = 1
Bounds
 0 <= x[0,0] <= 1
 0 <= x[0,1] <= 1
 0 <= x[0,2] <= 1
 0 <= x[0,3] <= 1
 0 <= x[0,4] <= 1
 0 <= x[0,5] <= 1
 0 <= x[0,6] <= 1
 0 <= x[0,7] <= 1
 0 <= x[0,8] <= 1
 0 <= x[0,9] <= 1
 0 <= x[0,10] <= 1
 0 <= x[0,11] <= 1
 0 <= x[0,12] <= 1
 0 <= x[0,13] <= 1
 0 <= x[0,14] <= 1
 0 <= x[0,15] <= 1
 0 <= x[0,16] <= 1
 0 <= x[1,0] <= 1
 0 <= x[1,1] <= 1
 0 <= x[1,2] <= 1
 0 <= x[1,3] <= 1
 0 <= x[1,4] <= 1
 0 <= x[1,5] <= 1
 0 <= x[1,6] <= 1
 0 <= x[1,7] <= 1
 0 <= x[1,8] <= 1
 0 <= x[1,9] <= 1
 0 <= x[1,10] <= 1
 0 <= x[1,11] <= 1
 0 <= x[1,12] <= 1
 0 <= x[1,13] <= 1
 0 <= x[1,14] <= 1
 0 <= x[1,15] <= 1
 0 <= x[1,16] <= 1
 0 <= x[2,0] <= 1
 0 <= x[2,1] <= 1
 0 <= x[2,2] <= 1
 0 <= x[2,3] <= 1
 0 <= x[2,4] <= 1
 0 <= x[2,5] <= 1
 0 <= x[2,6] <= 1
 0 <= x[2,7] <= 1
 0 <= x[2,8] <= 1
 0 <= x[2,9] <= 1
 0 <= x[2,10] <= 1
 0 <= x[2,11] <= 1
 0 <= x[2,12] <= 1
 0 <= x[2,13] <= 1
 0 <= x[2,14] <= 1
 0 <= x[2,15] <= 1
 0 <= x[2,16] <= 1
 0 <= x[3,0] <= 1
 0 <= x[3,1] <= 1
 0 <= x[3,2] <= 1
 0 <= x[3,3] <= 1
 0 <= x[3,4] <= 1
 0 <= x[3,5] <= 1
 0 <= x[3,6] <= 1
 0 <= x[3,7] <= 1
 0 <= x[3,8] <= 1
 0 <= x[3,9] <= 1
 0 <= x[3,10] <= 1
 0 <= x[3,11] <= 1
 0 <= x[3,12] <= 1
 0 <= x[3,13] <= 1
 0 <= x[3,14] <= 1
 0 <= x[3,15] <= 1
 0 <= x[3,16] <= 1
 0 <= x[4,0] <= 1
 0 <= x[4,1] <= 1
 0 <= x[4,2] <= 1
 0 <= x[4,3] <= 1
 0 <= x[4,4] <= 1
 0 <= x[4,5] <= 1
 0 <= x[4,6] <= 1
 0 <= x[4,7] <= 1
 0 <= x[4,8] <= 1
 0 <= x[4,9] <= 1
 0 <= x[4,10] <= 1
 0 <= x[4,11] <= 1
 0 <= x[4,12] <= 1
 0 <= x[4,13] <= 1
 0 <= x[4,14] <= 1
 0 <= x[4,15] <= 1
 0 <= x[4,16] <= 1
 0 <= x[5,0] <= 1
 0 <= x[5,1] <= 1
 0 <= x[5,2] <= 1
 0 <= x[5,3] <= 1
 0 <= x[5,4] <= 1
 0 <= x[5,5] <= 1
 0 <= x[5,6] <= 1
 0 <= x[5,7] <= 1
 0 <= x[5,8] <= 1
 0 <= x[5,9] <= 1
 0 <= x[5,10] <= 1
 0 <= x[5,11] <= 1
 0 <= x[5,12] <= 1
 0 <= x[5,13] <= 1
 0 <= x[5,14] <= 1
 0 <= x[5,15] <= 1
 0 <= x[5,16] <= 1
 0 <= x[6,0] <= 1
 0 <= x[6,1] <= 1
 0 <= x[6,2] <= 1
 0 <= x[6,3] <= 1
 0 <= x[6,4] <= 1
 0 <= x[6,5] <= 1
 0 <= x[6,6] <= 1
 0 <= x[6,7] <= 1
 0 <= x[6,8] <= 1
 0 <= x[6,9] <= 1
 0 <= x[6,10] <= 1
 0 <= x[6,11] <= 1
 0 <= x[6,12] <= 1
 0 <= x[6,13] <= 1
 0 <= x[6,14] <= 1
 0 <= x[6,15] <= 1
 0 <= x[6,16] <= 1
 0 <= x[7,0] <= 1
 0 <= x[7,1] <= 1
 0 <= x[7,2] <= 1
 0 <= x[7,3] <= 1
 0 <= x[7,4] <= 1
 0 <= x[7,5] <= 1
 0 <= x[7,6] <= 1
 0 <= x[7,7] <= 1
 0 <= x[7,8] <= 1
 0 <= x[7,9] <= 1
 0 <= x[7,10] <= 1
 0 <= x[7,11] <= 1
 0 <= x[7,12] <= 1
 0 <= x[7,13] <= 1
 0 <= x[7,14] <= 1
 0 <= x[7,15] <= 1
 0 <= x[7,16] <= 1
 0 <= x[8,0] <= 1
 0 <= x[8,1] <= 1
 0 <= x[8,2] <= 1
 0 <= x[8,3] <= 1
 0 <= x[8,4] <= 1
 0 <= x[8,5] <= 1
 0 <= x[8,6] <= 1
 0 <= x[8,7] <= 1
 0 <= x[8,8] <= 1
 0 <= x[8,9] <= 1
 0 <= x[8,10] <= 1
 0 <= x[8,11] <= 1
 0 <= x[8,12] <= 1
 0 <= x[8,13] <= 1
 0 <= x[8,14] <= 1
 0 <= x[8,15] <= 1
 0 <= x[8,16] <= 1
 0 <= x[9,0] <= 1
 0 <= x[9,1] <= 1
 0 <= x[9,2] <= 1
 0 <= x[9,3] <= 1
 0 <= x[9,4] <= 1
 0 <= x[9,5] <= 1
 0 <= x[9,6] <= 1
 0 <= x[9,7] <= 1
 0 <= x[9,8] <= 1
 0 <= x[9,9] <= 1
 0 <= x[9,10] <= 1
 0 <= x[9,11] <= 1
 0 <= x[9,12] <= 1
 0 <= x[9,13] <= 1
 0 <= x[9,14] <= 1
 0 <= x[9,15] <= 1
 0 <= x[9,16] <= 1
 0 <= x[10,0] <= 1
 0 <= x[10,1] <= 1
 0 <= x[10,2] <= 1
 0 <= x[10,3] <= 1
 0 <= x[10,4] <= 1
 0 <= x[10,5] <= 1
 0 <= x[10,6] <= 1
 0 <= x[10,7] <= 1
 0 <= x[10,8] <= 1
 0 <= x[10,9] <= 1
 0 <= x[10,10] <= 1
 0 <= x[10,11] <= 1
 0 <= x[10,12] <= 1
 0 <= x[10,13] <= 1
 0 <= x[10,14] <= 1
 0 <= x[10,15] <= 1
 0 <= x[10,16] <= 1
 0 <= x[11,0] <= 1
 0 <= x[11,1] <= 1
 0 <= x[11,2] <= 1
 0 <= x[11,3] <= 1
 0 <= x[11,4] <= 1
 0 <= x[11,5] <= 1
 0 <= x[11,6] <= 1
 0 <= x[11,7] <= 1
 0 <= x[11,8] <= 1
 0 <= x[11,9] <= 1
 0 <= x[11,10] <= 1
 0 <= x[11,11] <= 1
 0 <= x[11,12] <= 1
 0 <= x[11,13] <= 1
 0 <= x[11,14] <= 1
 0 <= x[11,15] <= 1
 0 <= x[11,16] <= 1
 0 <= x[12,0] <= 1
 0 <= x[12,1] <= 1
 0 <= x[12,2] <= 1
 0 <= x[12,3] <= 1
 0 <= x[12,4] <= 1
 0 <= x[12,5] <= 1
 0 <= x[12,6] <= 1
 0 <= x[12,7] <= 1
 0 <= x[12,8] <= 1
 0 <= x[12,9] <= 1
 0 <= x[12,10] <= 1
 0 <= x[12,11] <= 1
 0 <= x[12,12] <= 1
 0 <= x[12,13] <= 1
 0 <= x[12,14] <= 1
 0 <= x[12,15] <= 1
 0 <= x[12,16] <= 1
 0 <= x[13,0] <= 1
 0 <= x[13,1] <= 1
 0 <= x[13,2] <= 1
 0 <= x[13,3] <= 1
 0 <= x[13,4] <= 1
 0 <= x[13,5] <= 1
 0 <= x[13,6] <= 1
 0 <= x[13,7] <= 1
 0 <= x[13,8] <= 1
 0 <= x[13,9] <= 1
 0 <= x[13,10] <= 1
 0 <= x[13,11] <= 1
 0 <= x[13,12] <= 1
 0 <= x[13,13] <= 1
 0 <= x[13,14] <= 1
 0 <= x[13,15] <= 1
 0 <= x[13,16] <= 1
 0 <= x[14,0] <= 1
 0 <= x[14,1] <= 1
 0 <= x[14,2] <= 1
 0 <= x[14,3] <= 1
 0 <= x[14,4] <= 1
 0 <= x[14,5] <= 1
 0 <= x[14,6] <= 1
 0 <= x[14,7] <= 1
 0 <= x[14,8] <= 1
 0 <= x[14,9] <= 1
 0 <= x[14,10] <= 1
 0 <= x[14,11] <= 1
 0 <= x[14,12] <= 1
 0 <= x[14,13] <= 1
 0 <= x[14,14] <= 1
 0 <= x[14,15] <= 1
 0 <= x[14,16] <= 1
 0 <= x[15,0] <= 1
 0 <= x[15,1] <= 1
 0 <= x[15,2] <= 1
 0 <= x[15,3] <= 1
 0 <= x[15,4] <= 1
 0 <= x[15,5] <= 1
 0 <= x[15,6] <= 1
 0 <= x[15,7] <= 1
 0 <= x[15,8] <= 1
 0 <= x[15,9] <= 1
 0 <= x[15,10] <= 1
 0 <= x[15,11] <= 1
 0 <= x[15,12] <= 1
 0 <= x[15,13] <= 1
 0 <= x[15,14] <= 1
 0 <= x[15,15] <= 1
 0 <= x[15,16] <= 1
 0 <= x[16,0] <= 1
 0 <= x[16,1] <= 1
 0 <= x[16,2] <= 1
 0 <= x[16,3] <= 1
 0 <= x[16,4] <= 1
 0 <= x[16,5] <= 1
 0 <= x[16,6] <= 1
 0 <= x[16,7] <= 1
 0 <= x[16,8] <= 1
 0 <= x[16,9] <= 1
 0 <= x[16,10] <= 1
 0 <= x[16,11] <= 1
 0 <= x[16,12] <= 1
 0 <= x[16,13] <= 1
 0 <= x[16,14] <= 1
 0 <= x[16,15] <= 1
 0 <= x[16,16] <= 1
 0 <= x[17,0] <= 1
 0 <= x[17,1] <= 1
 0 <= x[17,2] <= 1
 0 <= x[17,3] <= 1
 0 <= x[17,4] <= 1
 0 <= x[17,5] <= 1
 0 <= x[17,6] <= 1
 0 <= x[17,7] <= 1
 0 <= x[17,8] <= 1
 0 <= x[17,9] <= 1
 0 <= x[17,10] <= 1
 0 <= x[17,11] <= 1
 0 <= x[17,12] <= 1
 0 <= x[17,13] <= 1
 0 <= x[17,14] <= 1
 0 <= x[17,15] <= 1
 0 <= x[17,16] <= 1
 0 <= x[18,0] <= 1
 0 <= x[18,1] <= 1
 0 <= x[18,2] <= 1
 0 <= x[18,3] <= 1
 0 <= x[18,4] <= 1
 0 <= x[18,5] <= 1
 0 <= x[18,6] <= 1
 0 <= x[18,7] <= 1
 0 <= x[18,8] <= 1
 0 <= x[18,9] <= 1
 0 <= x[18,10] <= 1
 0 <= x[18,11] <= 1
 0 <= x[18,12] <= 1
 0 <= x[18,13] <= 1
 0 <= x[18,14] <= 1
 0 <= x[18,15] <= 1
 0 <= x[18,16] <= 1
 0 <= x[19,0] <= 1
 0 <= x[19,1] <= 1
 0 <= x[19,2] <= 1
 0 <= x[19,3] <= 1
 0 <= x[19,4] <= 1
 0 <= x[19,5] <= 1
 0 <= x[19,6] <= 1
 0 <= x[19,7] <= 1
 0 <= x[19,8] <= 1
 0 <= x[19,9] <= 1
 0 <= x[19,10] <= 1
 0 <= x[19,11] <= 1
 0 <= x[19,12] <= 1
 0 <= x[19,13] <= 1
 0 <= x[19,14] <= 1
 0 <= x[19,15] <= 1
 0 <= x[19,16] <= 1
 0 <= x[20,0] <= 1
 0 <= x[20,1] <= 1
 0 <= x[20,2] <= 1
 0 <= x[20,3] <= 1
 0 <= x[20,4] <= 1
 0 <= x[20,5] <= 1
 0 <= x[20,6] <= 1
 0 <= x[20,7] <= 1
 0 <= x[20,8] <= 1
 0 <= x[20,9] <= 1
 0 <= x[20,10] <= 1
 0 <= x[20,11] <= 1
 0 <= x[20,12] <= 1
 0 <= x[20,13] <= 1
 0 <= x[20,14] <= 1
 0 <= x[20,15] <= 1
 0 <= x[20,16] <= 1
 0 <= x[21,0] <= 1
 0 <= x[21,1] <= 1
 0 <= x[21,2] <= 1
 0 <= x[21,3] <= 1
 0 <= x[21,4] <= 1
 0 <= x[21,5] <= 1
 0 <= x[21,6] <= 1
 0 <= x[21,7] <= 1
 0 <= x[21,8] <= 1
 0 <= x[21,9] <= 1
 0 <= x[21,10] <= 1
 0 <= x[21,11] <= 1
 0 <= x[21,12] <= 1
 0 <= x[21,13] <= 1
 0 <= x[21,14] <= 1
 0 <= x[21,15] <= 1
 0 <= x[21,16] <= 1
 0 <= x[22,0] <= 1
 0 <= x[22,1] <= 1
 0 <= x[22,2] <= 1
 0 <= x[22,3] <= 1
 0 <= x[22,4] <= 1
 0 <= x[22,5] <= 1
 0 <= x[22,6] <= 1
 0 <= x[22,7] <= 1
 0 <= x[22,8] <= 1
 0 <= x[22,9] <= 1
 0 <= x[22,10] <= 1
 0 <= x[22,11] <= 1
 0 <= x[22,12] <= 1
 0 <= x[22,13] <= 1
 0 <= x[22,14] <= 1
 0 <= x[22,15] <= 1
 0 <= x[22,16] <= 1
 0 <= x[23,0] <= 1
 0 <= x[23,1] <= 1
 0 <= x[23,2] <= 1
 0 <= x[23,3] <= 1
 0 <= x[23,4] <= 1
 0 <= x[23,5] <= 1
 0 <= x[23,6] <= 1
 0 <= x[23,7] <= 1
 0 <= x[23,8] <= 1
 0 <= x[23,9] <= 1
 0 <= x[23,10] <= 1
 0 <= x[23,11] <= 1
 0 <= x[23,12] <= 1
 0 <= x[23,13] <= 1
 0 <= x[23,14] <= 1
 0 <= x[23,15] <= 1
 0 <= x[23,16] <= 1
Binaries
 x[0,0]
 x[0,1]
 x[0,2]
 x[0,3]
 x[0,4]
 x[0,5]
 x[0,6]
 x[0,7]
 x[0,8]
 x[0,9]
 x[0,10]
 x[0,11]
 x[0,12]
 x[0,13]
 x[0,14]
 x[0,15]
 x[0,16]
 x[1,0]
 x[1,1]
 x[1,2]
 x[1,3]
 x[1,4]
 x[1,5]
 x[1,6]
 x[1,7]
 x[1,8]
 x[1,9]
 x[1,10]
 x[1,11]
 x[1,12]
 x[1,13]
 x[1,14]
 x[1,15]
 x[1,16]
 x[2,0]
 x[2,1]
 x[2,2]
 x[2,3]
 x[2,4]
 x[2,5]
 x[2,6]
 x[2,7]
 x[2,8]
 x[2,9]
 x[2,10]
 x[2,11]
 x[2,12]
 x[2,13]
 x[2,14]
 x[2,15]
 x[2,16]
 x[3,0]
 x[3,1]
 x[3,2]
 x[3,3]
 x[3,4]
 x[3,5]
 x[3,6]
 x[3,7]
 x[3,8]
 x[3,9]
 x[3,10]
 x[3,11]
 x[3,12]
 x[3,13]
 x[3,14]
 x[3,15]
 x[3,16]
 x[4,0]
 x[4,1]
 x[4,2]
 x[4,3]
 x[4,4]
 x[4,5]
 x[4,6]
 x[4,7]
 x[4,8]
 x[4,9]
 x[4,10]
 x[4,11]
 x[4,12]
 x[4,13]
 x[4,14]
 x[4,15]
 x[4,16]
 x[5,0]
 x[5,1]
 x[5,2]
 x[5,3]
 x[5,4]
 x[5,5]
 x[5,6]
 x[5,7]
 x[5,8]
 x[5,9]
 x[5,10]
 x[5,11]
 x[5,12]
 x[5,13]
 x[5,14]
 x[5,15]
 x[5,16]
 x[6,0]
 x[6,1]
 x[6,2]
 x[6,3]
 x[6,4]
 x[6,5]
 x[6,6]
 x[6,7]
 x[6,8]
 x[6,9]
 x[6,10]
 x[6,11]
 x[6,12]
 x[6,13]
 x[6,14]
 x[6,15]
 x[6,16]
 x[7,0]
 x[7,1]
 x[7,2]
 x[7,3]
 x[7,4]
 x[7,5]
 x[7,6]
 x[7,7]
 x[7,8]
 x[7,9]
 x[7,10]
 x[7,11]
 x[7,12]
 x[7,13]
 x[7,14]
 x[7,15]
 x[7,16]
 x[8,0]
 x[8,1]
 x[8,2]
 x[8,3]
 x[8,4]
 x[8,5]
 x[8,6]
 x[8,7]
 x[8,8]
 x[8,9]
 x[8,10]
 x[8,11]
 x[8,12]
 x[8,13]
 x[8,14]
 x[8,15]
 x[8,16]
 x[9,0]
 x[9,1]
 x[9,2]
 x[9,3]
 x[9,4]
 x[9,5]
 x[9,6]
 x[9,7]
 x[9,8]
 x[9,9]
 x[9,10]
 x[9,11]
 x[9,12]
 x[9,13]
 x[9,14]
 x[9,15]
 x[9,16]
 x[10,0]
 x[10,1]
 x[10,2]
 x[10,3]
 x[10,4]
 x[10,5]
 x[10,6]
 x[10,7]
 x[10,8]
 x[10,9]
 x[10,10]
 x[10,11]
 x[10,12]
 x[10,13]
 x[10,14]
 x[10,15]
 x[10,16]
 x[11,0]
 x[11,1]
 x[11,2]
 x[11,3]
 x[11,4]
 x[11,5]
 x[11,6]
 x[11,7]
 x[11,8]
 x[11,9]
 x[11,10]
 x[11,11]
 x[11,12]
 x[11,13]
 x[11,14]
 x[11,15]
 x[11,16]
 x[12,0]
 x[12,1]
 x[12,2]
 x[12,3]
 x[12,4]
 x[12,5]
 x[12,6]
 x[12,7]
 x[12,8]
 x[12,9]
 x[12,10]
 x[12,11]
 x[12,12]
 x[12,13]
 x[12,14]
 x[12,15]
 x[12,16]
 x[13,0]
 x[13,1]
 x[13,2]
 x[13,3]
 x[13,4]
 x[13,5]
 x[13,6]
 x[13,7]
 x[13,8]
 x[13,9]
 x[13,10]
 x[13,11]
 x[13,12]
 x[13,13]
 x[13,14]
 x[13,15]
 x[13,16]
 x[14,0]
 x[14,1]
 x[14,2]
 x[14,3]
 x[14,4]
 x[14,5]
 x[14,6]
 x[14,7]
 x[14,8]
 x[14,9]
 x[14,10]
 x[14,11]
 x[14,12]
 x[14,13]
 x[14,14]
 x[14,15]
 x[14,16]
 x[15,0]
 x[15,1]
 x[15,2]
 x[15,3]
 x[15,4]
 x[15,5]
 x[15,6]
 x[15,7]
 x[15,8]
 x[15,9]
 x[15,10]
 x[15,11]
 x[15,12]
 x[15,13]
 x[15,14]
 x[15,15]
 x[15,16]
 x[16,0]
 x[16,1]
 x[16,2]
 x[16,3]
 x[16,4]
 x[16,5]
 x[16,6]
 x[16,7]
 x[16,8]
 x[16,9]
 x[16,10]
 x[16,11]
 x[16,12]
 x[16,13]
 x[16,14]
 x[16,15]
 x[16,16]
 x[17,0]
 x[17,1]
 x[17,2]
 x[17,3]
 x[17,4]
 x[17,5]
 x[17,6]
 x[17,7]
 x[17,8]
 x[17,9]
 x[17,10]
 x[17,11]
 x[17,12]
 x[17,13]
 x[17,14]
 x[17,15]
 x[17,16]
 x[18,0]
 x[18,1]
 x[18,2]
 x[18,3]
 x[18,4]
 x[18,5]
 x[18,6]
 x[18,7]
 x[18,8]
 x[18,9]
 x[18,10]
 x[18,11]
 x[18,12]
 x[18,13]
 x[18,14]
 x[18,15]
 x[18,16]
 x[19,0]
 x[19,1]
 x[19,2]
 x[19,3]
 x[19,4]
 x[19,5]
 x[19,6]
 x[19,7]
 x[19,8]
 x[19,9]
 x[19,10]
 x[19,11]
 x[19,12]
 x[19,13]
 x[19,14]
 x[19,15]
 x[19,16]
 x[20,0]
 x[20,1]
 x[20,2]
 x[20,3]
 x[20,4]
 x[20,5]
 x[20,6]
 x[20,7]
 x[20,8]
 x[20,9]
 x[20,10]
 x[20,11]
 x[20,12]
 x[20,13]
 x[20,14]
 x[20,15]
 x[20,16]
 x[21,0]
 x[21,1]
 x[21,2]
 x[21,3]
 x[21,4]
 x[21,5]
 x[21,6]
 x[21,7]
 x[21,8]
 x[21,9]
 x[21,10]
 x[21,11]
 x[21,12]
 x[21,13]
 x[21,14]
 x[21,15]
 x[21,16]
 x[22,0]
 x[22,1]
 x[22,2]
 x[22,3]
 x[22,4]
 x[22,5]
 x[22,6]
 x[22,7]
 x[22,8]
 x[22,9]
 x[22,10]
 x[22,11]
 x[22,12]
 x[22,13]
 x[22,14]
 x[22,15]
 x[22,16]
 x[23,0]
 x[23,1]
 x[23,2]
 x[23,3]
 x[23,4]
 x[23,5]
 x[23,6]
 x[23,7]
 x[23,8]
 x[23,9]
 x[23,10]
 x[23,11]
 x[23,12]
 x[23,13]
 x[23,14]
 x[23,15]
 x[23,16]
End
 x[23,16]
End
23,14]
 x[23,15]
 x[23,16]
End
3,14]
 x[23,15]
 x[23,16]
End
